p cnf 224 501
100 -14 12 -11 0
-100 14 0
-100 -12 0
-100 11 0
101 -69 67 -66 0
-101 69 0
-101 -67 0
-101 66 0
102 -85 83 -82 0
-102 85 0
-102 -83 0
-102 82 0
103 -54 52 -51 0
-103 54 0
-103 -52 0
-103 51 0
104 -1 0
-104 1 0
105 -41 39 -38 0
-105 41 0
-105 -39 0
-105 38 0
106 -21 19 -18 0
-106 21 0
-106 -19 0
-106 18 0
107 -8 7 -6 0
-107 8 0
-107 -7 0
-107 6 0
108 -30 28 -27 0
-108 30 0
-108 -28 0
-108 27 0
-2 100 101 102 103 104 105 106 107 108 0
2 -100 0
2 -101 0
2 -102 0
2 -103 0
2 -104 0
2 -105 0
2 -106 0
2 -107 0
2 -108 0
109 -19 -18 0
-109 19 0
-109 18 0
110 -39 -38 0
-110 39 0
-110 38 0
111 -3 -2 0
-111 3 0
-111 2 0
112 -7 -6 0
-112 7 0
-112 6 0
113 -52 -51 0
-113 52 0
-113 51 0
114 -83 -82 0
-114 83 0
-114 82 0
115 -28 -27 0
-115 28 0
-115 27 0
116 -12 -11 0
-116 12 0
-116 11 0
117 -67 -66 0
-117 67 0
-117 66 0
-4 109 110 111 112 113 114 115 116 117 0
4 -109 0
4 -110 0
4 -111 0
4 -112 0
4 -113 0
4 -114 0
4 -115 0
4 -116 0
4 -117 0
118 -87 84 -82 0
-118 87 0
-118 -84 0
-118 82 0
119 -15 13 -11 0
-119 15 0
-119 -13 0
-119 11 0
120 -5 0
-120 5 0
121 -43 40 -38 0
-121 43 0
-121 -40 0
-121 38 0
122 -23 20 -18 0
-122 23 0
-122 -20 0
-122 18 0
123 -32 29 -27 0
-123 32 0
-123 -29 0
-123 27 0
124 -71 68 -66 0
-124 71 0
-124 -68 0
-124 66 0
125 -56 53 -51 0
-125 56 0
-125 -53 0
-125 51 0
-6 118 119 120 121 122 123 124 125 0
6 -118 0
6 -119 0
6 -120 0
6 -121 0
6 -122 0
6 -123 0
6 -124 0
6 -125 0
126 -8 0
-126 8 0
127 -7 0
-127 7 0
-9 126 127 0
9 -126 0
9 -127 0
128 -89 86 -82 0
-128 89 0
-128 -86 0
-128 82 0
129 -73 70 -66 0
-129 73 0
-129 -70 0
-129 66 0
130 -34 31 -27 0
-130 34 0
-130 -31 0
-130 27 0
131 -58 55 -51 0
-131 58 0
-131 -55 0
-131 51 0
132 -10 0
-132 10 0
133 -45 42 -38 0
-133 45 0
-133 -42 0
-133 38 0
134 -24 22 -18 0
-134 24 0
-134 -22 0
-134 18 0
-11 128 129 130 131 132 133 134 0
11 -128 0
11 -129 0
11 -130 0
11 -131 0
11 -132 0
11 -133 0
11 -134 0
135 -12 0
-135 12 0
136 -14 0
-136 14 0
-13 135 136 0
13 -135 0
13 -136 0
137 -15 0
-137 15 0
138 -13 0
-138 13 0
-16 137 138 0
16 -137 0
16 -138 0
139 -91 88 -82 0
-139 91 0
-139 -88 0
-139 82 0
140 -17 0
-140 17 0
141 -60 57 -51 0
-141 60 0
-141 -57 0
-141 51 0
142 -35 33 -27 0
-142 35 0
-142 -33 0
-142 27 0
143 -47 44 -38 0
-143 47 0
-143 -44 0
-143 38 0
144 -75 72 -66 0
-144 75 0
-144 -72 0
-144 66 0
-18 139 140 141 142 143 144 0
18 -139 0
18 -140 0
18 -141 0
18 -142 0
18 -143 0
18 -144 0
145 -19 0
-145 19 0
146 -21 0
-146 21 0
-20 145 146 0
20 -145 0
20 -146 0
147 -23 0
-147 23 0
148 -20 0
-148 20 0
-22 147 148 0
22 -147 0
22 -148 0
149 -22 0
-149 22 0
150 -24 0
-150 24 0
-25 149 150 0
25 -149 0
25 -150 0
151 -93 90 -82 0
-151 93 0
-151 -90 0
-151 82 0
152 -62 59 -51 0
-152 62 0
-152 -59 0
-152 51 0
153 -48 46 -38 0
-153 48 0
-153 -46 0
-153 38 0
154 -77 74 -66 0
-154 77 0
-154 -74 0
-154 66 0
155 -26 0
-155 26 0
-27 151 152 153 154 155 0
27 -151 0
27 -152 0
27 -153 0
27 -154 0
27 -155 0
156 -28 0
-156 28 0
157 -30 0
-157 30 0
-29 156 157 0
29 -156 0
29 -157 0
158 -32 0
-158 32 0
159 -29 0
-159 29 0
-31 158 159 0
31 -158 0
31 -159 0
160 -31 0
-160 31 0
161 -34 0
-161 34 0
-33 160 161 0
33 -160 0
33 -161 0
162 -35 0
-162 35 0
163 -33 0
-163 33 0
-36 162 163 0
36 -162 0
36 -163 0
164 -37 0
-164 37 0
165 -63 61 -51 0
-165 63 0
-165 -61 0
-165 51 0
166 -79 76 -66 0
-166 79 0
-166 -76 0
-166 66 0
167 -95 92 -82 0
-167 95 0
-167 -92 0
-167 82 0
-38 164 165 166 167 0
38 -164 0
38 -165 0
38 -166 0
38 -167 0
168 -39 0
-168 39 0
169 -41 0
-169 41 0
-40 168 169 0
40 -168 0
40 -169 0
170 -40 0
-170 40 0
171 -43 0
-171 43 0
-42 170 171 0
42 -170 0
42 -171 0
172 -45 0
-172 45 0
173 -42 0
-173 42 0
-44 172 173 0
44 -172 0
44 -173 0
174 -47 0
-174 47 0
175 -44 0
-175 44 0
-46 174 175 0
46 -174 0
46 -175 0
176 -46 0
-176 46 0
177 -48 0
-177 48 0
-49 176 177 0
49 -176 0
49 -177 0
178 -50 0
-178 50 0
179 -97 94 -82 0
-179 97 0
-179 -94 0
-179 82 0
180 -80 78 -66 0
-180 80 0
-180 -78 0
-180 66 0
-51 178 179 180 0
51 -178 0
51 -179 0
51 -180 0
181 -54 0
-181 54 0
182 -52 0
-182 52 0
-53 181 182 0
53 -181 0
53 -182 0
183 -53 0
-183 53 0
184 -56 0
-184 56 0
-55 183 184 0
55 -183 0
55 -184 0
185 -55 0
-185 55 0
186 -58 0
-186 58 0
-57 185 186 0
57 -185 0
57 -186 0
187 -60 0
-187 60 0
188 -57 0
-188 57 0
-59 187 188 0
59 -187 0
59 -188 0
189 -62 0
-189 62 0
190 -59 0
-190 59 0
-61 189 190 0
61 -189 0
61 -190 0
191 -61 0
-191 61 0
192 -63 0
-192 63 0
-64 191 192 0
64 -191 0
64 -192 0
193 -65 0
-193 65 0
194 -98 96 -82 0
-194 98 0
-194 -96 0
-194 82 0
-66 193 194 0
66 -193 0
66 -194 0
195 -67 0
-195 67 0
196 -69 0
-196 69 0
-68 195 196 0
68 -195 0
68 -196 0
197 -68 0
-197 68 0
198 -71 0
-198 71 0
-70 197 198 0
70 -197 0
70 -198 0
199 -70 0
-199 70 0
200 -73 0
-200 73 0
-72 199 200 0
72 -199 0
72 -200 0
201 -72 0
-201 72 0
202 -75 0
-202 75 0
-74 201 202 0
74 -201 0
74 -202 0
203 -77 0
-203 77 0
204 -74 0
-204 74 0
-76 203 204 0
76 -203 0
76 -204 0
205 -76 0
-205 76 0
206 -79 0
-206 79 0
-78 205 206 0
78 -205 0
78 -206 0
207 -80 0
-207 80 0
208 -78 0
-208 78 0
-81 207 208 0
81 -207 0
81 -208 0
209 -83 0
-209 83 0
210 -85 0
-210 85 0
-84 209 210 0
84 -209 0
84 -210 0
211 -87 0
-211 87 0
212 -84 0
-212 84 0
-86 211 212 0
86 -211 0
86 -212 0
213 -89 0
-213 89 0
214 -86 0
-214 86 0
-88 213 214 0
88 -213 0
88 -214 0
215 -91 0
-215 91 0
216 -88 0
-216 88 0
-90 215 216 0
90 -215 0
90 -216 0
217 -93 0
-217 93 0
218 -90 0
-218 90 0
-92 217 218 0
92 -217 0
92 -218 0
219 -95 0
-219 95 0
220 -92 0
-220 92 0
-94 219 220 0
94 -219 0
94 -220 0
221 -97 0
-221 97 0
222 -94 0
-222 94 0
-96 221 222 0
96 -221 0
96 -222 0
223 -96 0
-223 96 0
224 -98 0
-224 98 0
-99 223 224 0
99 -223 0
99 -224 0
c p weight 1 0.5 0
c p weight -1 0.5 0
c p weight 2 1.0 0
c p weight -2 1.0 0
c p weight 3 1.0 0
c p weight -3 0.0 0
c p weight 4 1.0 0
c p weight -4 0.0 0
c p weight 5 0.5 0
c p weight -5 0.5 0
c p weight 6 1.0 0
c p weight -6 1.0 0
c p weight 7 0.5 0
c p weight -7 0.5 0
c p weight 8 1.0 0
c p weight -8 0.0 0
c p weight 9 1.0 0
c p weight -9 1.0 0
c p weight 10 0.5 0
c p weight -10 0.5 0
c p weight 11 1.0 0
c p weight -11 1.0 0
c p weight 12 0.3333333333333333 0
c p weight -12 0.6666666666666667 0
c p weight 13 1.0 0
c p weight -13 1.0 0
c p weight 14 0.49999999999999994 0
c p weight -14 0.5 0
c p weight 15 0.9999999999999997 0
c p weight -15 3.3306690738754696e-16 0
c p weight 16 1.0 0
c p weight -16 1.0 0
c p weight 17 0.5 0
c p weight -17 0.5 0
c p weight 18 1.0 0
c p weight -18 1.0 0
c p weight 19 0.25 0
c p weight -19 0.75 0
c p weight 20 1.0 0
c p weight -20 1.0 0
c p weight 21 0.3333333333333333 0
c p weight -21 0.6666666666666667 0
c p weight 22 1.0 0
c p weight -22 1.0 0
c p weight 23 0.5 0
c p weight -23 0.5 0
c p weight 24 1.0 0
c p weight -24 0.0 0
c p weight 25 1.0 0
c p weight -25 1.0 0
c p weight 26 0.5 0
c p weight -26 0.5 0
c p weight 27 1.0 0
c p weight -27 1.0 0
c p weight 28 0.2 0
c p weight -28 0.8 0
c p weight 29 1.0 0
c p weight -29 1.0 0
c p weight 30 0.25 0
c p weight -30 0.75 0
c p weight 31 1.0 0
c p weight -31 1.0 0
c p weight 32 0.3333333333333333 0
c p weight -32 0.6666666666666667 0
c p weight 33 1.0 0
c p weight -33 1.0 0
c p weight 34 0.49999999999999994 0
c p weight -34 0.5 0
c p weight 35 0.9999999999999998 0
c p weight -35 2.220446049250313e-16 0
c p weight 36 1.0 0
c p weight -36 1.0 0
c p weight 37 0.5 0
c p weight -37 0.5 0
c p weight 38 1.0 0
c p weight -38 1.0 0
c p weight 39 0.16666666666666666 0
c p weight -39 0.8333333333333334 0
c p weight 40 1.0 0
c p weight -40 1.0 0
c p weight 41 0.19999999999999998 0
c p weight -41 0.8 0
c p weight 42 1.0 0
c p weight -42 1.0 0
c p weight 43 0.24999999999999997 0
c p weight -43 0.75 0
c p weight 44 1.0 0
c p weight -44 1.0 0
c p weight 45 0.33333333333333326 0
c p weight -45 0.6666666666666667 0
c p weight 46 1.0 0
c p weight -46 1.0 0
c p weight 47 0.4999999999999998 0
c p weight -47 0.5000000000000002 0
c p weight 48 0.999999999999999 0
c p weight -48 9.992007221626409e-16 0
c p weight 49 1.0 0
c p weight -49 1.0 0
c p weight 50 0.5 0
c p weight -50 0.5 0
c p weight 51 1.0 0
c p weight -51 1.0 0
c p weight 52 0.14285714285714285 0
c p weight -52 0.8571428571428572 0
c p weight 53 1.0 0
c p weight -53 1.0 0
c p weight 54 0.16666666666666666 0
c p weight -54 0.8333333333333334 0
c p weight 55 1.0 0
c p weight -55 1.0 0
c p weight 56 0.19999999999999996 0
c p weight -56 0.8 0
c p weight 57 1.0 0
c p weight -57 1.0 0
c p weight 58 0.24999999999999992 0
c p weight -58 0.7500000000000001 0
c p weight 59 1.0 0
c p weight -59 1.0 0
c p weight 60 0.33333333333333315 0
c p weight -60 0.6666666666666669 0
c p weight 61 1.0 0
c p weight -61 1.0 0
c p weight 62 0.4999999999999996 0
c p weight -62 0.5000000000000004 0
c p weight 63 0.9999999999999984 0
c p weight -63 1.5543122344752192e-15 0
c p weight 64 1.0 0
c p weight -64 1.0 0
c p weight 65 0.5 0
c p weight -65 0.5 0
c p weight 66 1.0 0
c p weight -66 1.0 0
c p weight 67 0.125 0
c p weight -67 0.875 0
c p weight 68 1.0 0
c p weight -68 1.0 0
c p weight 69 0.14285714285714285 0
c p weight -69 0.8571428571428572 0
c p weight 70 1.0 0
c p weight -70 1.0 0
c p weight 71 0.16666666666666666 0
c p weight -71 0.8333333333333334 0
c p weight 72 1.0 0
c p weight -72 1.0 0
c p weight 73 0.2 0
c p weight -73 0.8 0
c p weight 74 1.0 0
c p weight -74 1.0 0
c p weight 75 0.25 0
c p weight -75 0.75 0
c p weight 76 1.0 0
c p weight -76 1.0 0
c p weight 77 0.3333333333333333 0
c p weight -77 0.6666666666666667 0
c p weight 78 1.0 0
c p weight -78 1.0 0
c p weight 79 0.5 0
c p weight -79 0.5 0
c p weight 80 1.0 0
c p weight -80 0.0 0
c p weight 81 1.0 0
c p weight -81 1.0 0
c p weight 82 0.5 0
c p weight -82 0.5 0
c p weight 83 0.1111111111111111 0
c p weight -83 0.8888888888888888 0
c p weight 84 1.0 0
c p weight -84 1.0 0
c p weight 85 0.125 0
c p weight -85 0.875 0
c p weight 86 1.0 0
c p weight -86 1.0 0
c p weight 87 0.14285714285714288 0
c p weight -87 0.8571428571428571 0
c p weight 88 1.0 0
c p weight -88 1.0 0
c p weight 89 0.16666666666666669 0
c p weight -89 0.8333333333333333 0
c p weight 90 1.0 0
c p weight -90 1.0 0
c p weight 91 0.20000000000000007 0
c p weight -91 0.7999999999999999 0
c p weight 92 1.0 0
c p weight -92 1.0 0
c p weight 93 0.2500000000000001 0
c p weight -93 0.7499999999999999 0
c p weight 94 1.0 0
c p weight -94 1.0 0
c p weight 95 0.3333333333333335 0
c p weight -95 0.6666666666666665 0
c p weight 96 1.0 0
c p weight -96 1.0 0
c p weight 97 0.5000000000000003 0
c p weight -97 0.49999999999999967 0
c p weight 98 1.0 0
c p weight -98 0.0 0
c p weight 99 1.0 0
c p weight -99 1.0 0
c p weight 100 1.0 0
c p weight -100 1.0 0
c p weight 101 1.0 0
c p weight -101 1.0 0
c p weight 102 1.0 0
c p weight -102 1.0 0
c p weight 103 1.0 0
c p weight -103 1.0 0
c p weight 104 1.0 0
c p weight -104 1.0 0
c p weight 105 1.0 0
c p weight -105 1.0 0
c p weight 106 1.0 0
c p weight -106 1.0 0
c p weight 107 1.0 0
c p weight -107 1.0 0
c p weight 108 1.0 0
c p weight -108 1.0 0
c p weight 109 1.0 0
c p weight -109 1.0 0
c p weight 110 1.0 0
c p weight -110 1.0 0
c p weight 111 1.0 0
c p weight -111 1.0 0
c p weight 112 1.0 0
c p weight -112 1.0 0
c p weight 113 1.0 0
c p weight -113 1.0 0
c p weight 114 1.0 0
c p weight -114 1.0 0
c p weight 115 1.0 0
c p weight -115 1.0 0
c p weight 116 1.0 0
c p weight -116 1.0 0
c p weight 117 1.0 0
c p weight -117 1.0 0
c p weight 118 1.0 0
c p weight -118 1.0 0
c p weight 119 1.0 0
c p weight -119 1.0 0
c p weight 120 1.0 0
c p weight -120 1.0 0
c p weight 121 1.0 0
c p weight -121 1.0 0
c p weight 122 1.0 0
c p weight -122 1.0 0
c p weight 123 1.0 0
c p weight -123 1.0 0
c p weight 124 1.0 0
c p weight -124 1.0 0
c p weight 125 1.0 0
c p weight -125 1.0 0
c p weight 126 1.0 0
c p weight -126 1.0 0
c p weight 127 1.0 0
c p weight -127 1.0 0
c p weight 128 1.0 0
c p weight -128 1.0 0
c p weight 129 1.0 0
c p weight -129 1.0 0
c p weight 130 1.0 0
c p weight -130 1.0 0
c p weight 131 1.0 0
c p weight -131 1.0 0
c p weight 132 1.0 0
c p weight -132 1.0 0
c p weight 133 1.0 0
c p weight -133 1.0 0
c p weight 134 1.0 0
c p weight -134 1.0 0
c p weight 135 1.0 0
c p weight -135 1.0 0
c p weight 136 1.0 0
c p weight -136 1.0 0
c p weight 137 1.0 0
c p weight -137 1.0 0
c p weight 138 1.0 0
c p weight -138 1.0 0
c p weight 139 1.0 0
c p weight -139 1.0 0
c p weight 140 1.0 0
c p weight -140 1.0 0
c p weight 141 1.0 0
c p weight -141 1.0 0
c p weight 142 1.0 0
c p weight -142 1.0 0
c p weight 143 1.0 0
c p weight -143 1.0 0
c p weight 144 1.0 0
c p weight -144 1.0 0
c p weight 145 1.0 0
c p weight -145 1.0 0
c p weight 146 1.0 0
c p weight -146 1.0 0
c p weight 147 1.0 0
c p weight -147 1.0 0
c p weight 148 1.0 0
c p weight -148 1.0 0
c p weight 149 1.0 0
c p weight -149 1.0 0
c p weight 150 1.0 0
c p weight -150 1.0 0
c p weight 151 1.0 0
c p weight -151 1.0 0
c p weight 152 1.0 0
c p weight -152 1.0 0
c p weight 153 1.0 0
c p weight -153 1.0 0
c p weight 154 1.0 0
c p weight -154 1.0 0
c p weight 155 1.0 0
c p weight -155 1.0 0
c p weight 156 1.0 0
c p weight -156 1.0 0
c p weight 157 1.0 0
c p weight -157 1.0 0
c p weight 158 1.0 0
c p weight -158 1.0 0
c p weight 159 1.0 0
c p weight -159 1.0 0
c p weight 160 1.0 0
c p weight -160 1.0 0
c p weight 161 1.0 0
c p weight -161 1.0 0
c p weight 162 1.0 0
c p weight -162 1.0 0
c p weight 163 1.0 0
c p weight -163 1.0 0
c p weight 164 1.0 0
c p weight -164 1.0 0
c p weight 165 1.0 0
c p weight -165 1.0 0
c p weight 166 1.0 0
c p weight -166 1.0 0
c p weight 167 1.0 0
c p weight -167 1.0 0
c p weight 168 1.0 0
c p weight -168 1.0 0
c p weight 169 1.0 0
c p weight -169 1.0 0
c p weight 170 1.0 0
c p weight -170 1.0 0
c p weight 171 1.0 0
c p weight -171 1.0 0
c p weight 172 1.0 0
c p weight -172 1.0 0
c p weight 173 1.0 0
c p weight -173 1.0 0
c p weight 174 1.0 0
c p weight -174 1.0 0
c p weight 175 1.0 0
c p weight -175 1.0 0
c p weight 176 1.0 0
c p weight -176 1.0 0
c p weight 177 1.0 0
c p weight -177 1.0 0
c p weight 178 1.0 0
c p weight -178 1.0 0
c p weight 179 1.0 0
c p weight -179 1.0 0
c p weight 180 1.0 0
c p weight -180 1.0 0
c p weight 181 1.0 0
c p weight -181 1.0 0
c p weight 182 1.0 0
c p weight -182 1.0 0
c p weight 183 1.0 0
c p weight -183 1.0 0
c p weight 184 1.0 0
c p weight -184 1.0 0
c p weight 185 1.0 0
c p weight -185 1.0 0
c p weight 186 1.0 0
c p weight -186 1.0 0
c p weight 187 1.0 0
c p weight -187 1.0 0
c p weight 188 1.0 0
c p weight -188 1.0 0
c p weight 189 1.0 0
c p weight -189 1.0 0
c p weight 190 1.0 0
c p weight -190 1.0 0
c p weight 191 1.0 0
c p weight -191 1.0 0
c p weight 192 1.0 0
c p weight -192 1.0 0
c p weight 193 1.0 0
c p weight -193 1.0 0
c p weight 194 1.0 0
c p weight -194 1.0 0
c p weight 195 1.0 0
c p weight -195 1.0 0
c p weight 196 1.0 0
c p weight -196 1.0 0
c p weight 197 1.0 0
c p weight -197 1.0 0
c p weight 198 1.0 0
c p weight -198 1.0 0
c p weight 199 1.0 0
c p weight -199 1.0 0
c p weight 200 1.0 0
c p weight -200 1.0 0
c p weight 201 1.0 0
c p weight -201 1.0 0
c p weight 202 1.0 0
c p weight -202 1.0 0
c p weight 203 1.0 0
c p weight -203 1.0 0
c p weight 204 1.0 0
c p weight -204 1.0 0
c p weight 205 1.0 0
c p weight -205 1.0 0
c p weight 206 1.0 0
c p weight -206 1.0 0
c p weight 207 1.0 0
c p weight -207 1.0 0
c p weight 208 1.0 0
c p weight -208 1.0 0
c p weight 209 1.0 0
c p weight -209 1.0 0
c p weight 210 1.0 0
c p weight -210 1.0 0
c p weight 211 1.0 0
c p weight -211 1.0 0
c p weight 212 1.0 0
c p weight -212 1.0 0
c p weight 213 1.0 0
c p weight -213 1.0 0
c p weight 214 1.0 0
c p weight -214 1.0 0
c p weight 215 1.0 0
c p weight -215 1.0 0
c p weight 216 1.0 0
c p weight -216 1.0 0
c p weight 217 1.0 0
c p weight -217 1.0 0
c p weight 218 1.0 0
c p weight -218 1.0 0
c p weight 219 1.0 0
c p weight -219 1.0 0
c p weight 220 1.0 0
c p weight -220 1.0 0
c p weight 221 1.0 0
c p weight -221 1.0 0
c p weight 222 1.0 0
c p weight -222 1.0 0
c p weight 223 1.0 0
c p weight -223 1.0 0
c p weight 224 1.0 0
c p weight -224 1.0 0
c p semirings aspmc.semirings.probabilistic 0
c p quantify 1 2 3 4 5 6 7 8 9 10 11 12 13 14 15 16 17 18 19 20 21 22 23 24 25 26 27 28 29 30 31 32 33 34 35 36 37 38 39 40 41 42 43 44 45 46 47 48 49 50 51 52 53 54 55 56 57 58 59 60 61 62 63 64 65 66 67 68 69 70 71 72 73 74 75 76 77 78 79 80 81 82 83 84 85 86 87 88 89 90 91 92 93 94 95 96 97 98 99 100 101 102 103 104 105 106 107 108 109 110 111 112 113 114 115 116 117 118 119 120 121 122 123 124 125 126 127 128 129 130 131 132 133 134 135 136 137 138 139 140 141 142 143 144 145 146 147 148 149 150 151 152 153 154 155 156 157 158 159 160 161 162 163 164 165 166 167 168 169 170 171 172 173 174 175 176 177 178 179 180 181 182 183 184 185 186 187 188 189 190 191 192 193 194 195 196 197 198 199 200 201 202 203 204 205 206 207 208 209 210 211 212 213 214 215 216 217 218 219 220 221 222 223 224 0
c p auxilliary 2 6 9 11 13 16 18 20 22 25 27 29 31 33 36 38 40 42 44 46 49 51 53 55 57 59 61 64 66 68 70 72 74 76 78 81 84 86 88 90 92 94 96 99 100 101 102 103 104 105 106 107 108 109 110 111 112 113 114 115 116 117 118 119 120 121 122 123 124 125 126 127 128 129 130 131 132 133 134 135 136 137 138 139 140 141 142 143 144 145 146 147 148 149 150 151 152 153 154 155 156 157 158 159 160 161 162 163 164 165 166 167 168 169 170 171 172 173 174 175 176 177 178 179 180 181 182 183 184 185 186 187 188 189 190 191 192 193 194 195 196 197 198 199 200 201 202 203 204 205 206 207 208 209 210 211 212 213 214 215 216 217 218 219 220 221 222 223 224 0
